Version identifier: 22.1.0.0 | 2022-03-09 | 1a383f8ce
CPXPARAM_Read_DataCheck                          1
CPXPARAM_TimeLimit                               600
1 of 1 MIP starts provided solutions.
MIP start 'm1' defined initial solution with objective 56.0000.
Tried aggregator 4 times.
MIP Presolve eliminated 70720 rows and 7226 columns.
MIP Presolve modified 901 coefficients.
Aggregator did 65207 substitutions.
Reduced MIP has 7604 rows, 66559 columns, and 140865 nonzeros.
Reduced MIP has 66525 binaries, 34 generals, 0 SOSs, and 0 indicators.
Presolve time = 0.90 sec. (846.40 ticks)
Tried aggregator 1 time.
Detecting symmetries...
Reduced MIP has 7604 rows, 66559 columns, and 140865 nonzeros.
Reduced MIP has 66525 binaries, 34 generals, 0 SOSs, and 0 indicators.
Presolve time = 0.13 sec. (103.66 ticks)
Probing fixed 53 vars, tightened 0 bounds.
Probing time = 0.35 sec. (28.07 ticks)
Clique table members: 134786.
MIP emphasis: balance optimality and feasibility.
MIP search method: dynamic search.
Parallel mode: deterministic, using up to 8 threads.
Root relaxation solution time = 0.72 sec. (530.65 ticks)

        Nodes                                         Cuts/
   Node  Left     Objective  IInf  Best Integer    Best Bound    ItCnt     Gap

*     0+    0                           56.0000        0.0000           100.00%
      0     0       34.3931  5562       56.0000       34.3931       25   38.58%
      0     0       55.0000   764       56.0000      Cuts: 37    13035    1.79%
      0     0       55.0000   803       56.0000      Cuts: 91    28548    1.79%

Repeating presolve.
Tried aggregator 3 times.
MIP Presolve eliminated 1611 rows and 37888 columns.
MIP Presolve modified 8 coefficients.
Aggregator did 1215 substitutions.
Reduced MIP has 4778 rows, 27456 columns, and 59397 nonzeros.
Reduced MIP has 27456 binaries, 0 generals, 0 SOSs, and 0 indicators.
Presolve time = 0.13 sec. (128.50 ticks)
Tried aggregator 2 times.
Detecting symmetries...
MIP Presolve eliminated 0 rows and 7 columns.
MIP Presolve modified 8 coefficients.
Aggregator did 15 substitutions.
Reduced MIP has 4763 rows, 27434 columns, and 59424 nonzeros.
Reduced MIP has 27434 binaries, 0 generals, 0 SOSs, and 0 indicators.
Presolve time = 0.05 sec. (50.88 ticks)
Represolve time = 0.25 sec. (249.28 ticks)
Probing fixed 24 vars, tightened 0 bounds.
Probing time = 0.12 sec. (42.67 ticks)
Clique table members: 53286.
MIP emphasis: balance optimality and feasibility.
MIP search method: dynamic search.
Parallel mode: deterministic, using up to 8 threads.
Root relaxation solution time = 2.50 sec. (1990.36 ticks)

        Nodes                                         Cuts/
   Node  Left     Objective  IInf  Best Integer    Best Bound    ItCnt     Gap

*     0+    0                           56.0000       55.0000             1.79%
      0     0       55.0000  3392       56.0000       55.0000    28562    1.79%
      0     0       55.0000   828       56.0000      Cuts: 25    46358    1.79%
      0     0       55.0000  1194       56.0000       Cuts: 6    63538    1.79%
      0     0       55.0000   805       56.0000       Cuts: 4    90228    1.79%
      0     0        cutoff             56.0000       55.0000   179082    1.79%
Elapsed time = 600.02 sec. (293765.00 ticks, tree = 0.01 MB, solutions = 1)

Clique cuts applied:  23
Zero-half cuts applied:  69
Lift and project cuts applied:  5
Gomory fractional cuts applied:  25

Root node processing (before b&c):
  Real time             =  600.03 sec. (293767.92 ticks)
Parallel b&c, 8 threads:
  Real time             =    0.00 sec. (0.00 ticks)
  Sync time (average)   =    0.00 sec.
  Wait time (average)   =    0.00 sec.
                          ------------
Total (root+branch&cut) =  600.03 sec. (293767.92 ticks)
